<?xml version = "1.0" encoding="UTF-8" standalone="yes"?>
<CPLEXSolution version="1.2">
 <header
   problemName="C:\Users\eugen\OneDrive\Escritorio\marcserr-decidimoptim-v9_multi_normal/ExperimentData/Eixample/Data/Eixample800000.lp"
   solutionName="incumbent"
   solutionIndex="-1"
   solutionTypeValue="3"
   solutionTypeString="primal"
   solutionStatusValue="301"
   solutionStatusString="multi-objective optimal"
   solutionMethodString="mip"
   primalFeasible="1"
   dualFeasible="0"
   MIPNodes="0"
   MIPIterations="1"
   writeLevel="1"/>
 <quality
   epInt="1.0000000000000001e-05"
   epRHS="9.9999999999999995e-07"
   maxIntInfeas="0"
   maxPrimalInfeas="0"
   maxX="1"
   maxSlack="10500"/>
 <linearConstraints>
  <constraint name="c1" index="0" slack="10500"/>
  <constraint name="c2" index="1" slack="-20"/>
  <constraint name="c3" index="2" slack="2"/>
 </linearConstraints>
 <variables>
  <variable name="p_1" index="0" value="1"/>
  <variable name="p_2" index="1" value="1"/>
  <variable name="p_3" index="2" value="1"/>
  <variable name="p_4" index="3" value="1"/>
  <variable name="p_5" index="4" value="1"/>
  <variable name="p_6" index="5" value="1"/>
  <variable name="p_7" index="6" value="1"/>
  <variable name="p_8" index="7" value="1"/>
  <variable name="p_9" index="8" value="0"/>
  <variable name="p_10" index="9" value="1"/>
  <variable name="p_11" index="10" value="1"/>
  <variable name="p_12" index="11" value="1"/>
  <variable name="p_13" index="12" value="1"/>
  <variable name="p_14" index="13" value="1"/>
  <variable name="p_15" index="14" value="1"/>
  <variable name="p_16" index="15" value="1"/>
  <variable name="p_17" index="16" value="1"/>
  <variable name="p_18" index="17" value="1"/>
  <variable name="p_19" index="18" value="1"/>
  <variable name="p_20" index="19" value="1"/>
  <variable name="p_21" index="20" value="1"/>
  <variable name="p_22" index="21" value="1"/>
  <variable name="y" index="22" value="1"/>
 </variables>
 <objectiveValues>
  <objective index="0" name="first" value="5.0567164" priority="0" weight="1"/>
  <objective index="1" name="second" value="5.3549999999999995" priority="0" weight="1"/>
 </objectiveValues>
 <blendedObjectiveValues>
  <blendedObjective priority="0" value="10.4117164"/>
 </blendedObjectiveValues>
</CPLEXSolution>
